p cnf 272 555
1 3 4 6 7 9 10 13 14 15 16 0
17 18 19 22 25 27 29 30 0
33 34 35 37 38 40 42 46 47 0
51 52 54 56 57 58 0
65 67 68 69 70 71 73 74 0
82 84 85 86 88 92 93 94 0
100 103 106 107 108 109 110 112 0
113 114 115 117 120 124 126 0
130 133 134 136 137 139 141 0
146 147 148 154 155 158 159 0
161 162 164 168 169 171 173 175 176 0
178 179 182 184 185 188 190 192 0
195 196 199 200 201 204 205 208 0
209 210 211 213 216 219 221 222 223 224 0
225 227 229 232 233 234 237 239 0
241 243 245 246 247 249 250 252 256 0
264 265 268 269 272 0
-1 -17 0
-1 -33 0
-1 -65 0
-1 -113 0
-1 -161 0
-1 -209 0
-1 -225 0
-1 -241 0
-17 -33 0
-17 -65 0
-17 -113 0
-17 -161 0
-17 -209 0
-17 -225 0
-17 -241 0
-33 -65 0
-33 -113 0
-33 -161 0
-33 -209 0
-33 -225 0
-33 -241 0
-65 -113 0
-65 -161 0
-65 -209 0
-65 -225 0
-65 -241 0
-113 -161 0
-113 -209 0
-113 -225 0
-113 -241 0
-161 -209 0
-161 -225 0
-161 -241 0
-209 -225 0
-209 -241 0
-225 -241 0
-18 -34 0
-18 -82 0
-18 -114 0
-18 -130 0
-18 -146 0
-18 -162 0
-18 -178 0
-18 -210 0
-34 -82 0
-34 -114 0
-34 -130 0
-34 -146 0
-34 -162 0
-34 -178 0
-34 -210 0
-82 -114 0
-82 -130 0
-82 -146 0
-82 -162 0
-82 -178 0
-82 -210 0
-114 -130 0
-114 -146 0
-114 -162 0
-114 -178 0
-114 -210 0
-130 -146 0
-130 -162 0
-130 -178 0
-130 -210 0
-146 -162 0
-146 -178 0
-146 -210 0
-162 -178 0
-162 -210 0
-178 -210 0
-3 -19 0
-3 -35 0
-3 -51 0
-3 -67 0
-3 -115 0
-3 -147 0
-3 -179 0
-3 -195 0
-3 -211 0
-3 -227 0
-3 -243 0
-19 -35 0
-19 -51 0
-19 -67 0
-19 -115 0
-19 -147 0
-19 -179 0
-19 -195 0
-19 -211 0
-19 -227 0
-19 -243 0
-35 -51 0
-35 -67 0
-35 -115 0
-35 -147 0
-35 -179 0
-35 -195 0
-35 -211 0
-35 -227 0
-35 -243 0
-51 -67 0
-51 -115 0
-51 -147 0
-51 -179 0
-51 -195 0
-51 -211 0
-51 -227 0
-51 -243 0
-67 -115 0
-67 -147 0
-67 -179 0
-67 -195 0
-67 -211 0
-67 -227 0
-67 -243 0
-115 -147 0
-115 -179 0
-115 -195 0
-115 -211 0
-115 -227 0
-115 -243 0
-147 -179 0
-147 -195 0
-147 -211 0
-147 -227 0
-147 -243 0
-179 -195 0
-179 -211 0
-179 -227 0
-179 -243 0
-195 -211 0
-195 -227 0
-195 -243 0
-211 -227 0
-211 -243 0
-227 -243 0
-4 -52 0
-4 -68 0
-4 -84 0
-4 -100 0
-4 -148 0
-4 -164 0
-4 -196 0
-52 -68 0
-52 -84 0
-52 -100 0
-52 -148 0
-52 -164 0
-52 -196 0
-68 -84 0
-68 -100 0
-68 -148 0
-68 -164 0
-68 -196 0
-84 -100 0
-84 -148 0
-84 -164 0
-84 -196 0
-100 -148 0
-100 -164 0
-100 -196 0
-148 -164 0
-148 -196 0
-164 -196 0
-37 -69 0
-37 -85 0
-37 -117 0
-37 -133 0
-37 -213 0
-37 -229 0
-37 -245 0
-69 -85 0
-69 -117 0
-69 -133 0
-69 -213 0
-69 -229 0
-69 -245 0
-85 -117 0
-85 -133 0
-85 -213 0
-85 -229 0
-85 -245 0
-117 -133 0
-117 -213 0
-117 -229 0
-117 -245 0
-133 -213 0
-133 -229 0
-133 -245 0
-213 -229 0
-213 -245 0
-229 -245 0
-6 -22 0
-6 -38 0
-6 -54 0
-6 -70 0
-6 -86 0
-6 -134 0
-6 -182 0
-6 -246 0
-22 -38 0
-22 -54 0
-22 -70 0
-22 -86 0
-22 -134 0
-22 -182 0
-22 -246 0
-38 -54 0
-38 -70 0
-38 -86 0
-38 -134 0
-38 -182 0
-38 -246 0
-54 -70 0
-54 -86 0
-54 -134 0
-54 -182 0
-54 -246 0
-70 -86 0
-70 -134 0
-70 -182 0
-70 -246 0
-86 -134 0
-86 -182 0
-86 -246 0
-134 -182 0
-134 -246 0
-182 -246 0
-7 -71 0
-7 -103 0
-7 -199 0
-7 -247 0
-71 -103 0
-71 -199 0
-71 -247 0
-103 -199 0
-103 -247 0
-199 -247 0
-40 -56 0
-40 -88 0
-40 -120 0
-40 -136 0
-40 -168 0
-40 -184 0
-40 -200 0
-40 -216 0
-40 -232 0
-40 -264 0
-56 -88 0
-56 -120 0
-56 -136 0
-56 -168 0
-56 -184 0
-56 -200 0
-56 -216 0
-56 -232 0
-56 -264 0
-88 -120 0
-88 -136 0
-88 -168 0
-88 -184 0
-88 -200 0
-88 -216 0
-88 -232 0
-88 -264 0
-120 -136 0
-120 -168 0
-120 -184 0
-120 -200 0
-120 -216 0
-120 -232 0
-120 -264 0
-136 -168 0
-136 -184 0
-136 -200 0
-136 -216 0
-136 -232 0
-136 -264 0
-168 -184 0
-168 -200 0
-168 -216 0
-168 -232 0
-168 -264 0
-184 -200 0
-184 -216 0
-184 -232 0
-184 -264 0
-200 -216 0
-200 -232 0
-200 -264 0
-216 -232 0
-216 -264 0
-232 -264 0
-9 -25 0
-9 -57 0
-9 -73 0
-9 -137 0
-9 -169 0
-9 -185 0
-9 -201 0
-9 -233 0
-9 -249 0
-9 -265 0
-25 -57 0
-25 -73 0
-25 -137 0
-25 -169 0
-25 -185 0
-25 -201 0
-25 -233 0
-25 -249 0
-25 -265 0
-57 -73 0
-57 -137 0
-57 -169 0
-57 -185 0
-57 -201 0
-57 -233 0
-57 -249 0
-57 -265 0
-73 -137 0
-73 -169 0
-73 -185 0
-73 -201 0
-73 -233 0
-73 -249 0
-73 -265 0
-137 -169 0
-137 -185 0
-137 -201 0
-137 -233 0
-137 -249 0
-137 -265 0
-169 -185 0
-169 -201 0
-169 -233 0
-169 -249 0
-169 -265 0
-185 -201 0
-185 -233 0
-185 -249 0
-185 -265 0
-201 -233 0
-201 -249 0
-201 -265 0
-233 -249 0
-233 -265 0
-249 -265 0
-10 -42 0
-10 -58 0
-10 -74 0
-10 -106 0
-10 -154 0
-10 -234 0
-10 -250 0
-42 -58 0
-42 -74 0
-42 -106 0
-42 -154 0
-42 -234 0
-42 -250 0
-58 -74 0
-58 -106 0
-58 -154 0
-58 -234 0
-58 -250 0
-74 -106 0
-74 -154 0
-74 -234 0
-74 -250 0
-106 -154 0
-106 -234 0
-106 -250 0
-154 -234 0
-154 -250 0
-234 -250 0
-27 -107 0
-27 -139 0
-27 -155 0
-27 -171 0
-27 -219 0
-107 -139 0
-107 -155 0
-107 -171 0
-107 -219 0
-139 -155 0
-139 -171 0
-139 -219 0
-155 -171 0
-155 -219 0
-171 -219 0
-92 -108 0
-92 -124 0
-92 -188 0
-92 -204 0
-92 -252 0
-92 -268 0
-108 -124 0
-108 -188 0
-108 -204 0
-108 -252 0
-108 -268 0
-124 -188 0
-124 -204 0
-124 -252 0
-124 -268 0
-188 -204 0
-188 -252 0
-188 -268 0
-204 -252 0
-204 -268 0
-252 -268 0
-13 -29 0
-13 -93 0
-13 -109 0
-13 -141 0
-13 -173 0
-13 -205 0
-13 -221 0
-13 -237 0
-13 -269 0
-29 -93 0
-29 -109 0
-29 -141 0
-29 -173 0
-29 -205 0
-29 -221 0
-29 -237 0
-29 -269 0
-93 -109 0
-93 -141 0
-93 -173 0
-93 -205 0
-93 -221 0
-93 -237 0
-93 -269 0
-109 -141 0
-109 -173 0
-109 -205 0
-109 -221 0
-109 -237 0
-109 -269 0
-141 -173 0
-141 -205 0
-141 -221 0
-141 -237 0
-141 -269 0
-173 -205 0
-173 -221 0
-173 -237 0
-173 -269 0
-205 -221 0
-205 -237 0
-205 -269 0
-221 -237 0
-221 -269 0
-237 -269 0
-14 -30 0
-14 -46 0
-14 -94 0
-14 -110 0
-14 -126 0
-14 -158 0
-14 -190 0
-14 -222 0
-30 -46 0
-30 -94 0
-30 -110 0
-30 -126 0
-30 -158 0
-30 -190 0
-30 -222 0
-46 -94 0
-46 -110 0
-46 -126 0
-46 -158 0
-46 -190 0
-46 -222 0
-94 -110 0
-94 -126 0
-94 -158 0
-94 -190 0
-94 -222 0
-110 -126 0
-110 -158 0
-110 -190 0
-110 -222 0
-126 -158 0
-126 -190 0
-126 -222 0
-158 -190 0
-158 -222 0
-190 -222 0
-15 -47 0
-15 -159 0
-15 -175 0
-15 -223 0
-15 -239 0
-47 -159 0
-47 -175 0
-47 -223 0
-47 -239 0
-159 -175 0
-159 -223 0
-159 -239 0
-175 -223 0
-175 -239 0
-223 -239 0
-16 -112 0
-16 -176 0
-16 -192 0
-16 -208 0
-16 -224 0
-16 -256 0
-16 -272 0
-112 -176 0
-112 -192 0
-112 -208 0
-112 -224 0
-112 -256 0
-112 -272 0
-176 -192 0
-176 -208 0
-176 -224 0
-176 -256 0
-176 -272 0
-192 -208 0
-192 -224 0
-192 -256 0
-192 -272 0
-208 -224 0
-208 -256 0
-208 -272 0
-224 -256 0
-224 -272 0
-256 -272 0
